63 11
74 19
11 131
31 60
11 188
54 23
5 106
1 119
21 64
35 20
24 178
49 42
35 126
44 78
17 96
46 29
30 16
16 168
29 58
95 16
74 52
91 50
62 34
21 118
72 47
21 151
33 1
24 23
30 191
78 33
21 99
66 16
52 5
84 35
10 51
48 37
15 155
8 179
50 23
72 3
38 78
14 108
33 39
95 57
78 15
11 196
1 196
4 135
38 3
78 29
20 28
39 102
18 200
12 181
6 119
14 45
14 40
43 128
21 21
41 44
14 126
82 14
91 4
6 59
56 66
12 18
34 5
92 43
43 85
12 139
9 24
13 28
95 18
36 24
46 5
65 39
89 41
87 25
50 82
64 55
59 38
75 10
11 2
55 88
31 121
12 182
5 55
12 47
35 54
11 169
79 11
28 65
27 146
7 200
51 82
21 4
84 22
45 120
1 121
20 97
